# Solution for model Task2_Switching_Stations
# Objective value = 57301741.6947411
Q_Czestochowa_Opole 0
Q_Czestochowa_Kielce 200
Q_Czestochowa_Warsaw 78
Q_Lodz_Opole 6.3399999999999977e+01
Q_Lodz_Kielce 1.2680000000000001e+02
Q_Lodz_Warsaw 1.2680000000000001e+02
Q_Walbrzych_Opole 129
Q_Walbrzych_Kielce 0
Q_Walbrzych_Warsaw 0
Q_Poznan_Opole 0
Q_Poznan_Kielce 1.0081755986218730e+02
Q_Poznan_Warsaw 1.5018244013781270e+02
Q_Zielona_Gora_Opole 5.7354274684018861e+01
Q_Zielona_Gora_Kielce 8.38244013781275
Q_Zielona_Gora_Warsaw 5.5263285178168395e+01
Q_Piotrkow_Opole 0
Q_Piotrkow_Kielce 139
Q_Piotrkow_Warsaw 0
Q_Skierniewice_Opole 0
Q_Skierniewice_Kielce 0
Q_Skierniewice_Warsaw 197
Q_Bytom_Opole 0
Q_Bytom_Kielce 163
Q_Bytom_Warsaw 0
Q_Wodzislaw_Slaski_Opole 0
Q_Wodzislaw_Slaski_Kielce 119
Q_Wodzislaw_Slaski_Warsaw 0
Q_Katowice_Opole 1.7245725315981161e+01
Q_Katowice_Kielce 200
Q_Katowice_Warsaw 4.5754274684018839e+01
Q_Wroclaw_Opole 133
Q_Wroclaw_Kielce 0
Q_Wroclaw_Warsaw 0
Q_Sosnowiec_Opole 0
Q_Sosnowiec_Kielce 143
Q_Sosnowiec_Warsaw 0
